NAME : A-n48-k7.669825.tour
COMMENT : Length = 669825
COMMENT : Found by LKH [Keld Helsgaun] Sun Dec 17 18:58:26 2017
TYPE : TOUR
DIMENSION : 54
TOUR_SECTION
1
7
23
39
26
20
38
4
49
45
24
44
32
13
6
2
52
17
48
3
11
34
50
19
36
33
37
8
46
28
54
41
35
10
16
9
40
27
21
51
15
18
42
53
29
30
22
31
47
14
25
5
43
12
-1
EOF
